outputs/case_414.model.txt
social_housing_only_rental = False
improvement_plan_submitted_and_approved = True
capital_level_value = -1
self_use_real_estate_investment = 1430000000
owner_equity = 4000000000
real_estate_immediate_use = False
capital_fund = 1000000
total_real_estate_investment = 1460000000
real_estate_has_income = True
financial_or_business_deterioration = True
capital_improvement_measures_completed = True
internal_control_and_handling_compliance = True
internal_handling_established = True
real_estate_investment_limit = 1
real_estate_valuation_done = True
internal_handling_system_established = True
internal_control_and_audit_established = True
capital_level = 4
financial_or_business_deterioration_and_no_improvement_plan = False
internal_control_executed = True
capital_level_severe_insufficient_and_no_measures = False
real_estate_immediate_use_and_income = True
penalty = False
real_estate_valuation_required = True
internal_handling_executed = True
internal_control_established = True